p tw 196 38221 2 
1 3 
1 4 
1 5 
1 6 
1 7 
1 8 
1 9 
1 10 
1 11 
1 12 
1 13 
1 14 
1 15 
1 17 
1 29 
1 30 
1 43 
1 52 
1 57 
1 64 
1 71 
1 81 
1 85 
1 96 
1 99 
1 107 
1 113 
1 119 
1 127 
1 130 
1 141 
1 145 
1 155 
1 160 
1 169 
1 182 
1 183 
1 195 
2 3 
2 4 
2 5 
2 6 
2 7 
2 8 
2 9 
2 10 
2 11 
2 12 
2 13 
2 14 
2 16 
2 20 
2 30 
2 42 
2 44 
2 46 
2 58 
2 59 
2 72 
2 75 
2 85 
2 86 
2 100 
2 105 
2 114 
2 125 
2 128 
2 138 
2 142 
2 151 
2 156 
2 164 
2 170 
2 177 
2 184 
2 190 
3 4 
3 5 
3 6 
3 7 
3 8 
3 9 
3 10 
3 11 
3 12 
3 13 
3 14 
3 17 
3 26 
3 31 
3 34 
3 45 
3 55 
3 59 
3 65 
3 71 
3 73 
3 87 
3 94 
3 101 
3 103 
3 115 
3 126 
3 129 
3 133 
3 143 
3 148 
3 157 
3 165 
3 171 
3 172 
3 184 
3 185 
4 5 
4 6 
4 7 
4 8 
4 9 
4 10 
4 11 
4 12 
4 13 
4 14 
4 18 
4 24 
4 32 
4 37 
4 46 
4 56 
4 60 
4 63 
4 74 
4 76 
4 88 
4 89 
4 102 
4 109 
4 115 
4 116 
4 130 
4 134 
4 141 
4 144 
4 156 
4 158 
4 172 
4 181 
4 186 
4 194 
5 6 
5 7 
5 8 
5 9 
5 10 
5 11 
5 12 
5 13 
5 14 
5 18 
5 19 
5 33 
5 39 
5 43 
5 47 
5 61 
5 69 
5 72 
5 75 
5 89 
5 92 
5 103 
5 110 
5 117 
5 122 
5 131 
5 135 
5 143 
5 145 
5 159 
5 161 
5 173 
5 174 
5 187 
5 196 
6 7 
6 8 
6 9 
6 10 
6 11 
6 12 
6 13 
6 14 
6 20 
6 25 
6 32 
6 34 
6 45 
6 48 
6 61 
6 62 
6 76 
6 79 
6 90 
6 98 
6 104 
6 106 
6 114 
6 118 
6 132 
6 139 
6 146 
6 150 
6 155 
6 160 
6 174 
6 180 
6 188 
6 189 
7 8 
7 9 
7 10 
7 11 
7 12 
7 13 
7 14 
7 15 
7 21 
7 33 
7 35 
7 44 
7 49 
7 63 
7 68 
7 77 
7 84 
7 91 
7 97 
7 102 
7 105 
7 119 
7 123 
7 133 
7 136 
7 147 
7 149 
7 161 
7 162 
7 171 
7 175 
7 188 
7 189 
8 9 
8 10 
8 11 
8 12 
8 13 
8 14 
8 22 
8 27 
8 36 
8 40 
8 49 
8 50 
8 64 
8 67 
8 78 
8 80 
8 90 
8 92 
8 101 
8 106 
8 113 
8 120 
8 131 
8 134 
8 148 
8 154 
8 162 
8 163 
8 170 
8 176 
8 186 
8 190 
9 10 
9 11 
9 12 
9 13 
9 14 
9 22 
9 23 
9 35 
9 37 
9 48 
9 51 
9 57 
9 65 
9 74 
9 79 
9 87 
9 93 
9 100 
9 107 
9 117 
9 121 
9 135 
9 140 
9 149 
9 153 
9 163 
9 166 
9 177 
9 179 
9 191 
9 192 
10 11 
10 12 
10 13 
10 14 
10 21 
10 24 
10 38 
10 41 
10 47 
10 52 
10 58 
10 66 
10 73 
10 80 
10 88 
10 94 
10 99 
10 108 
10 122 
10 124 
10 136 
10 137 
10 146 
10 150 
10 164 
10 168 
10 176 
10 178 
10 191 
10 192 
11 12 
11 13 
11 14 
11 25 
11 28 
11 31 
11 39 
11 53 
11 54 
11 66 
11 67 
11 81 
11 83 
11 93 
11 95 
11 104 
11 109 
11 120 
11 123 
11 128 
11 137 
11 144 
11 151 
11 159 
11 165 
11 175 
11 179 
11 183 
11 193 
12 13 
12 14 
12 19 
12 26 
12 38 
12 40 
12 51 
12 54 
12 68 
12 70 
12 78 
12 82 
12 91 
12 96 
12 110 
12 111 
12 118 
12 124 
12 129 
12 138 
12 142 
12 152 
12 158 
12 166 
12 169 
12 180 
12 193 
12 194 
13 14 
13 23 
13 27 
13 36 
13 41 
13 53 
13 55 
13 62 
13 69 
13 77 
13 83 
13 86 
13 97 
13 111 
13 112 
13 116 
13 125 
13 127 
13 139 
13 152 
13 153 
13 157 
13 167 
13 178 
13 181 
13 187 
13 195 
14 16 
14 28 
14 29 
14 42 
14 50 
14 56 
14 60 
14 70 
14 82 
14 84 
14 95 
14 98 
14 108 
14 112 
14 121 
14 126 
14 132 
14 140 
14 147 
14 154 
14 167 
14 168 
14 173 
14 182 
14 185 
14 196 
15 16 
15 17 
15 18 
15 19 
15 20 
15 21 
15 22 
15 23 
15 24 
15 25 
15 26 
15 27 
15 28 
15 29 
15 33 
15 43 
15 44 
15 57 
15 68 
15 71 
15 84 
15 85 
15 97 
15 99 
15 102 
15 113 
15 123 
15 127 
15 136 
15 141 
15 149 
15 155 
15 162 
15 169 
15 171 
15 183 
15 188 
16 17 
16 18 
16 19 
16 20 
16 21 
16 22 
16 23 
16 24 
16 25 
16 26 
16 27 
16 28 
16 29 
16 30 
16 44 
16 50 
16 58 
16 60 
16 72 
16 82 
16 86 
16 95 
16 100 
16 108 
16 114 
16 121 
16 128 
16 132 
16 142 
16 147 
16 156 
16 167 
16 170 
16 173 
16 184 
16 185 
17 18 
17 19 
17 20 
17 21 
17 22 
17 23 
17 24 
17 25 
17 26 
17 27 
17 28 
17 30 
17 31 
17 45 
17 52 
17 59 
17 64 
17 73 
17 81 
17 87 
17 96 
17 101 
17 107 
17 115 
17 119 
17 129 
17 130 
17 143 
17 145 
17 157 
17 160 
17 171 
17 182 
17 185 
17 195 
18 19 
18 20 
18 21 
18 22 
18 23 
18 24 
18 25 
18 26 
18 27 
18 28 
18 32 
18 39 
18 43 
18 46 
18 60 
18 69 
18 72 
18 74 
18 88 
18 92 
18 102 
18 110 
18 116 
18 122 
18 130 
18 135 
18 143 
18 144 
18 158 
18 161 
18 172 
18 174 
18 186 
18 196 
19 20 
19 21 
19 22 
19 23 
19 24 
19 25 
19 26 
19 27 
19 28 
19 33 
19 38 
19 47 
19 51 
19 61 
19 70 
19 75 
19 78 
19 89 
19 91 
19 103 
19 111 
19 117 
19 118 
19 129 
19 131 
19 142 
19 145 
19 158 
19 159 
19 169 
19 173 
19 187 
19 193 
20 21 
20 22 
20 23 
20 24 
20 25 
20 26 
20 27 
20 28 
20 34 
20 42 
20 46 
20 48 
20 59 
20 62 
20 75 
20 76 
20 85 
20 90 
20 104 
20 105 
20 118 
20 125 
20 132 
20 138 
20 146 
20 151 
20 160 
20 164 
20 174 
20 177 
20 188 
20 190 
21 22 
21 23 
21 24 
21 25 
21 26 
21 27 
21 28 
21 35 
21 41 
21 47 
21 49 
21 58 
21 63 
21 73 
21 77 
21 88 
21 91 
21 99 
21 105 
21 119 
21 124 
21 133 
21 137 
21 146 
21 147 
21 161 
21 168 
21 175 
21 176 
21 189 
21 191 
22 23 
22 24 
22 25 
22 26 
22 27 
22 28 
22 35 
22 36 
22 48 
22 50 
22 57 
22 64 
22 74 
22 78 
22 87 
22 92 
22 100 
22 106 
22 117 
22 120 
22 134 
22 140 
22 148 
22 153 
22 162 
22 166 
22 176 
22 179 
22 190 
22 192 
23 24 
23 25 
23 26 
23 27 
23 28 
23 36 
23 37 
23 51 
23 53 
23 62 
23 65 
23 77 
23 79 
23 86 
23 93 
23 107 
23 112 
23 116 
23 121 
23 127 
23 135 
23 149 
23 152 
23 157 
23 163 
23 177 
23 178 
23 187 
23 191 
24 25 
24 26 
24 27 
24 28 
24 37 
24 38 
24 52 
24 56 
24 63 
24 66 
24 76 
24 80 
24 89 
24 94 
24 108 
24 109 
24 115 
24 122 
24 134 
24 136 
24 141 
24 150 
24 156 
24 164 
24 178 
24 181 
24 192 
24 194 
25 26 
25 27 
25 28 
25 32 
25 39 
25 45 
25 53 
25 61 
25 67 
25 79 
25 81 
25 95 
25 98 
25 106 
25 109 
25 114 
25 123 
25 137 
25 139 
25 150 
25 151 
25 155 
25 165 
25 179 
25 180 
25 189 
25 193 
26 27 
26 28 
26 34 
26 40 
26 54 
26 55 
26 65 
26 68 
26 71 
26 82 
26 94 
26 96 
26 103 
26 110 
26 124 
26 126 
26 133 
26 138 
26 148 
26 152 
26 165 
26 166 
26 172 
26 180 
26 184 
26 194 
27 28 
27 40 
27 41 
27 49 
27 55 
27 67 
27 69 
27 80 
27 83 
27 90 
27 97 
27 101 
27 111 
27 113 
27 125 
27 131 
27 139 
27 153 
27 154 
27 163 
27 167 
27 170 
27 181 
27 186 
27 195 
28 31 
28 42 
28 54 
28 56 
28 66 
28 70 
28 83 
28 84 
28 93 
28 98 
28 104 
28 112 
28 120 
28 126 
28 128 
28 140 
28 144 
28 154 
28 159 
28 168 
28 175 
28 182 
28 183 
28 196 
29 30 
29 31 
29 32 
29 33 
29 34 
29 35 
29 36 
29 37 
29 38 
29 39 
29 40 
29 41 
29 42 
29 43 
29 50 
29 57 
29 60 
29 71 
29 82 
29 85 
29 95 
29 99 
29 108 
29 113 
29 121 
29 127 
29 132 
29 141 
29 147 
29 155 
29 167 
29 169 
29 173 
29 183 
29 185 
30 31 
30 32 
30 33 
30 34 
30 35 
30 36 
30 37 
30 38 
30 39 
30 40 
30 41 
30 42 
30 44 
30 52 
30 58 
30 64 
30 72 
30 81 
30 86 
30 96 
30 100 
30 107 
30 114 
30 119 
30 128 
30 130 
30 142 
30 145 
30 156 
30 160 
30 170 
30 182 
30 184 
30 195 
31 32 
31 33 
31 34 
31 35 
31 36 
31 37 
31 38 
31 39 
31 40 
31 41 
31 42 
31 45 
31 54 
31 59 
31 66 
31 73 
31 83 
31 87 
31 93 
31 101 
31 104 
31 115 
31 120 
31 128 
31 129 
31 143 
31 144 
31 157 
31 159 
31 171 
31 175 
31 183 
31 185 
32 33 
32 34 
32 35 
32 36 
32 37 
32 38 
32 39 
32 40 
32 41 
32 42 
32 45 
32 46 
32 60 
32 61 
32 74 
32 79 
32 88 
32 98 
32 102 
32 106 
32 114 
32 116 
32 130 
32 139 
32 144 
32 150 
32 155 
32 158 
32 172 
32 180 
32 186 
32 189 
33 34 
33 35 
33 36 
33 37 
33 38 
33 39 
33 40 
33 41 
33 42 
33 44 
33 47 
33 61 
33 68 
33 75 
33 84 
33 89 
33 97 
33 102 
33 103 
33 117 
33 123 
33 131 
33 136 
33 145 
33 149 
33 159 
33 162 
33 171 
33 173 
33 187 
33 188 
34 35 
34 36 
34 37 
34 38 
34 39 
34 40 
34 41 
34 42 
34 48 
34 55 
34 62 
34 65 
34 71 
34 76 
34 90 
34 94 
34 103 
34 104 
34 118 
34 126 
34 132 
34 133 
34 146 
34 148 
34 160 
34 165 
34 172 
34 174 
34 184 
34 188 
35 36 
35 37 
35 38 
35 39 
35 40 
35 41 
35 42 
35 48 
35 49 
35 57 
35 63 
35 74 
35 77 
35 87 
35 91 
35 100 
35 105 
35 117 
35 119 
35 133 
35 140 
35 147 
35 153 
35 161 
35 166 
35 175 
35 179 
35 189 
35 192 
36 37 
36 38 
36 39 
36 40 
36 41 
36 42 
36 50 
36 53 
36 62 
36 64 
36 77 
36 78 
36 86 
36 92 
36 106 
36 112 
36 116 
36 120 
36 127 
36 134 
36 148 
36 152 
36 157 
36 162 
36 176 
36 178 
36 187 
36 190 
37 38 
37 39 
37 40 
37 41 
37 42 
37 51 
37 56 
37 63 
37 65 
37 76 
37 79 
37 89 
37 93 
37 107 
37 109 
37 115 
37 121 
37 134 
37 135 
37 141 
37 149 
37 156 
37 163 
37 177 
37 181 
37 191 
37 194 
38 39 
38 40 
38 41 
38 42 
38 51 
38 52 
38 66 
38 70 
38 78 
38 80 
38 91 
38 94 
38 108 
38 111 
38 118 
38 122 
38 129 
38 136 
38 142 
38 150 
38 158 
38 164 
38 169 
38 178 
38 192 
38 193 
39 40 
39 41 
39 42 
39 43 
39 53 
39 67 
39 69 
39 72 
39 81 
39 92 
39 95 
39 109 
39 110 
39 122 
39 123 
39 135 
39 137 
39 143 
39 151 
39 161 
39 165 
39 174 
39 179 
39 193 
39 196 
40 41 
40 42 
40 49 
40 54 
40 67 
40 68 
40 80 
40 82 
40 90 
40 96 
40 101 
40 110 
40 113 
40 124 
40 131 
40 138 
40 152 
40 154 
40 163 
40 166 
40 170 
40 180 
40 186 
40 194 
41 42 
41 47 
41 55 
41 58 
41 69 
41 73 
41 83 
41 88 
41 97 
41 99 
41 111 
41 124 
41 125 
41 137 
41 139 
41 146 
41 153 
41 167 
41 168 
41 176 
41 181 
41 191 
41 195 
42 46 
42 56 
42 59 
42 70 
42 75 
42 84 
42 85 
42 98 
42 105 
42 112 
42 125 
42 126 
42 138 
42 140 
42 151 
42 154 
42 164 
42 168 
42 177 
42 182 
42 190 
42 196 
43 44 
43 45 
43 46 
43 47 
43 48 
43 49 
43 50 
43 51 
43 52 
43 53 
43 54 
43 55 
43 56 
43 57 
43 69 
43 71 
43 72 
43 85 
43 92 
43 99 
43 110 
43 113 
43 122 
43 127 
43 135 
43 141 
43 143 
43 155 
43 161 
43 169 
43 174 
43 183 
43 196 
44 45 
44 46 
44 47 
44 48 
44 49 
44 50 
44 51 
44 52 
44 53 
44 54 
44 55 
44 56 
44 58 
44 68 
44 72 
44 84 
44 86 
44 97 
44 100 
44 102 
44 114 
44 123 
44 128 
44 136 
44 142 
44 149 
44 156 
44 162 
44 170 
44 171 
44 184 
44 188 
45 46 
45 47 
45 48 
45 49 
45 50 
45 51 
45 52 
45 53 
45 54 
45 55 
45 56 
45 59 
45 61 
45 73 
45 79 
45 87 
45 98 
45 101 
45 106 
45 114 
45 115 
45 129 
45 139 
45 143 
45 150 
45 155 
45 157 
45 171 
45 180 
45 185 
45 189 
46 47 
46 48 
46 49 
46 50 
46 51 
46 52 
46 53 
46 54 
46 55 
46 56 
46 59 
46 60 
46 74 
46 75 
46 85 
46 88 
46 102 
46 105 
46 116 
46 125 
46 130 
46 138 
46 144 
46 151 
46 158 
46 164 
46 172 
46 177 
46 186 
46 190 
47 48 
47 49 
47 50 
47 51 
47 52 
47 53 
47 54 
47 55 
47 56 
47 58 
47 61 
47 73 
47 75 
47 88 
47 89 
47 99 
47 103 
47 117 
47 124 
47 131 
47 137 
47 145 
47 146 
47 159 
47 168 
47 173 
47 176 
47 187 
47 191 
48 49 
48 50 
48 51 
48 52 
48 53 
48 54 
48 55 
48 56 
48 57 
48 62 
48 74 
48 76 
48 87 
48 90 
48 100 
48 104 
48 117 
48 118 
48 132 
48 140 
48 146 
48 153 
48 160 
48 166 
48 174 
48 179 
48 188 
48 192 
49 50 
49 51 
49 52 
49 53 
49 54 
49 55 
49 56 
49 63 
49 67 
49 77 
49 80 
49 90 
49 91 
49 101 
49 105 
49 113 
49 119 
49 131 
49 133 
49 147 
49 154 
49 161 
49 163 
49 170 
49 175 
49 186 
49 189 
50 51 
50 52 
50 53 
50 54 
50 55 
50 56 
50 60 
50 64 
50 78 
50 82 
50 92 
50 95 
50 106 
50 108 
50 120 
50 121 
50 132 
50 134 
50 147 
50 148 
50 162 
50 167 
50 173 
50 176 
50 185 
50 190 
51 52 
51 53 
51 54 
51 55 
51 56 
51 65 
51 70 
51 78 
51 79 
51 91 
51 93 
51 107 
51 111 
51 118 
51 121 
51 129 
51 135 
51 142 
51 149 
51 158 
51 163 
51 169 
51 177 
51 191 
51 193 
52 53 
52 54 
52 55 
52 56 
52 64 
52 66 
52 80 
52 81 
52 94 
52 96 
52 107 
52 108 
52 119 
52 122 
52 130 
52 136 
52 145 
52 150 
52 160 
52 164 
52 178 
52 182 
52 192 
52 195 
53 54 
53 55 
53 56 
53 62 
53 67 
53 77 
53 81 
53 86 
53 95 
53 109 
53 112 
53 116 
53 123 
53 127 
53 137 
53 151 
53 152 
53 157 
53 165 
53 178 
53 179 
53 187 
53 193 
54 55 
54 56 
54 66 
54 68 
54 82 
54 83 
54 93 
54 96 
54 104 
54 110 
54 120 
54 124 
54 128 
54 138 
54 144 
54 152 
54 159 
54 166 
54 175 
54 180 
54 183 
54 194 
55 56 
55 65 
55 69 
55 71 
55 83 
55 94 
55 97 
55 103 
55 111 
55 125 
55 126 
55 133 
55 139 
55 148 
55 153 
55 165 
55 167 
55 172 
55 181 
55 184 
55 195 
56 63 
56 70 
56 76 
56 84 
56 89 
56 98 
56 109 
56 112 
56 115 
56 126 
56 134 
56 140 
56 141 
56 154 
56 156 
56 168 
56 181 
56 182 
56 194 
56 196 
57 58 
57 59 
57 60 
57 61 
57 62 
57 63 
57 64 
57 65 
57 66 
57 67 
57 68 
57 69 
57 70 
57 71 
57 74 
57 85 
57 87 
57 99 
57 100 
57 113 
57 117 
57 127 
57 140 
57 141 
57 153 
57 155 
57 166 
57 169 
57 179 
57 183 
57 192 
58 59 
58 60 
58 61 
58 62 
58 63 
58 64 
58 65 
58 66 
58 67 
58 68 
58 69 
58 70 
58 72 
58 73 
58 86 
58 88 
58 99 
58 100 
58 114 
58 124 
58 128 
58 137 
58 142 
58 146 
58 156 
58 168 
58 170 
58 176 
58 184 
58 191 
59 60 
59 61 
59 62 
59 63 
59 64 
59 65 
59 66 
59 67 
59 68 
59 69 
59 70 
59 73 
59 75 
59 85 
59 87 
59 101 
59 105 
59 115 
59 125 
59 129 
59 138 
59 143 
59 151 
59 157 
59 164 
59 171 
59 177 
59 185 
59 190 
60 61 
60 62 
60 63 
60 64 
60 65 
60 66 
60 67 
60 68 
60 69 
60 70 
60 74 
60 82 
60 88 
60 95 
60 102 
60 108 
60 116 
60 121 
60 130 
60 132 
60 144 
60 147 
60 158 
60 167 
60 172 
60 173 
60 185 
60 186 
61 62 
61 63 
61 64 
61 65 
61 66 
61 67 
61 68 
61 69 
61 70 
61 75 
61 79 
61 89 
61 98 
61 103 
61 106 
61 114 
61 117 
61 131 
61 139 
61 145 
61 150 
61 155 
61 159 
61 173 
61 180 
61 187 
61 189 
62 63 
62 64 
62 65 
62 66 
62 67 
62 68 
62 69 
62 70 
62 76 
62 77 
62 86 
62 90 
62 104 
62 112 
62 116 
62 118 
62 127 
62 132 
62 146 
62 152 
62 157 
62 160 
62 174 
62 178 
62 187 
62 188 
63 64 
63 65 
63 66 
63 67 
63 68 
63 69 
63 70 
63 76 
63 77 
63 89 
63 91 
63 105 
63 109 
63 115 
63 119 
63 133 
63 134 
63 141 
63 147 
63 156 
63 161 
63 175 
63 181 
63 189 
63 194 
64 65 
64 66 
64 67 
64 68 
64 69 
64 70 
64 78 
64 81 
64 92 
64 96 
64 106 
64 107 
64 119 
64 120 
64 130 
64 134 
64 145 
64 148 
64 160 
64 162 
64 176 
64 182 
64 190 
64 195 
65 66 
65 67 
65 68 
65 69 
65 70 
65 71 
65 79 
65 93 
65 94 
65 103 
65 107 
65 121 
65 126 
65 133 
65 135 
65 148 
65 149 
65 163 
65 165 
65 172 
65 177 
65 184 
65 191 
66 67 
66 68 
66 69 
66 70 
66 80 
66 83 
66 93 
66 94 
66 104 
66 108 
66 120 
66 122 
66 128 
66 136 
66 144 
66 150 
66 159 
66 164 
66 175 
66 178 
66 183 
66 192 
67 68 
67 69 
67 70 
67 80 
67 81 
67 90 
67 95 
67 101 
67 109 
67 113 
67 123 
67 131 
67 137 
67 151 
67 154 
67 163 
67 165 
67 170 
67 179 
67 186 
67 193 
68 69 
68 70 
68 82 
68 84 
68 96 
68 97 
68 102 
68 110 
68 123 
68 124 
68 136 
68 138 
68 149 
68 152 
68 162 
68 166 
68 171 
68 180 
68 188 
68 194 
69 70 
69 72 
69 83 
69 92 
69 97 
69 110 
69 111 
69 122 
69 125 
69 135 
69 139 
69 143 
69 153 
69 161 
69 167 
69 174 
69 181 
69 195 
69 196 
70 78 
70 84 
70 91 
70 98 
70 111 
70 112 
70 118 
70 126 
70 129 
70 140 
70 142 
70 154 
70 158 
70 168 
70 169 
70 182 
70 193 
70 196 
71 72 
71 73 
71 74 
71 75 
71 76 
71 77 
71 78 
71 79 
71 80 
71 81 
71 82 
71 83 
71 84 
71 85 
71 94 
71 99 
71 103 
71 113 
71 126 
71 127 
71 133 
71 141 
71 148 
71 155 
71 165 
71 169 
71 172 
71 183 
71 184 
72 73 
72 74 
72 75 
72 76 
72 77 
72 78 
72 79 
72 80 
72 81 
72 82 
72 83 
72 84 
72 86 
72 92 
72 100 
72 110 
72 114 
72 122 
72 128 
72 135 
72 142 
72 143 
72 156 
72 161 
72 170 
72 174 
72 184 
72 196 
73 74 
73 75 
73 76 
73 77 
73 78 
73 79 
73 80 
73 81 
73 82 
73 83 
73 84 
73 87 
73 88 
73 99 
73 101 
73 115 
73 124 
73 129 
73 137 
73 143 
73 146 
73 157 
73 168 
73 171 
73 176 
73 185 
73 191 
74 75 
74 76 
74 77 
74 78 
74 79 
74 80 
74 81 
74 82 
74 83 
74 84 
74 87 
74 88 
74 100 
74 102 
74 116 
74 117 
74 130 
74 140 
74 144 
74 153 
74 158 
74 166 
74 172 
74 179 
74 186 
74 192 
75 76 
75 77 
75 78 
75 79 
75 80 
75 81 
75 82 
75 83 
75 84 
75 85 
75 89 
75 103 
75 105 
75 117 
75 125 
75 131 
75 138 
75 145 
75 151 
75 159 
75 164 
75 173 
75 177 
75 187 
75 190 
76 77 
76 78 
76 79 
76 80 
76 81 
76 82 
76 83 
76 84 
76 89 
76 90 
76 104 
76 109 
76 115 
76 118 
76 132 
76 134 
76 141 
76 146 
76 156 
76 160 
76 174 
76 181 
76 188 
76 194 
77 78 
77 79 
77 80 
77 81 
77 82 
77 83 
77 84 
77 86 
77 91 
77 105 
77 112 
77 116 
77 119 
77 127 
77 133 
77 147 
77 152 
77 157 
77 161 
77 175 
77 178 
77 187 
77 189 
78 79 
78 80 
78 81 
78 82 
78 83 
78 84 
78 91 
78 92 
78 106 
78 111 
78 118 
78 120 
78 129 
78 134 
78 142 
78 148 
78 158 
78 162 
78 169 
78 176 
78 190 
78 193 
79 80 
79 81 
79 82 
79 83 
79 84 
79 93 
79 98 
79 106 
79 107 
79 114 
79 121 
79 135 
79 139 
79 149 
79 150 
79 155 
79 163 
79 177 
79 180 
79 189 
79 191 
80 81 
80 82 
80 83 
80 84 
80 90 
80 94 
80 101 
80 108 
80 113 
80 122 
80 131 
80 136 
80 150 
80 154 
80 163 
80 164 
80 170 
80 178 
80 186 
80 192 
81 82 
81 83 
81 84 
81 95 
81 96 
81 107 
81 109 
81 119 
81 123 
81 130 
81 137 
81 145 
81 151 
81 160 
81 165 
81 179 
81 182 
81 193 
81 195 
82 83 
82 84 
82 95 
82 96 
82 108 
82 110 
82 121 
82 124 
82 132 
82 138 
82 147 
82 152 
82 166 
82 167 
82 173 
82 180 
82 185 
82 194 
83 84 
83 93 
83 97 
83 104 
83 111 
83 120 
83 125 
83 128 
83 139 
83 144 
83 153 
83 159 
83 167 
83 175 
83 181 
83 183 
83 195 
84 97 
84 98 
84 102 
84 112 
84 123 
84 126 
84 136 
84 140 
84 149 
84 154 
84 162 
84 168 
84 171 
84 182 
84 188 
84 196 
85 86 
85 87 
85 88 
85 89 
85 90 
85 91 
85 92 
85 93 
85 94 
85 95 
85 96 
85 97 
85 98 
85 99 
85 105 
85 113 
85 125 
85 127 
85 138 
85 141 
85 151 
85 155 
85 164 
85 169 
85 177 
85 183 
85 190 
86 87 
86 88 
86 89 
86 90 
86 91 
86 92 
86 93 
86 94 
86 95 
86 96 
86 97 
86 98 
86 100 
86 112 
86 114 
86 116 
86 127 
86 128 
86 142 
86 152 
86 156 
86 157 
86 170 
86 178 
86 184 
86 187 
87 88 
87 89 
87 90 
87 91 
87 92 
87 93 
87 94 
87 95 
87 96 
87 97 
87 98 
87 100 
87 101 
87 115 
87 117 
87 129 
87 140 
87 143 
87 153 
87 157 
87 166 
87 171 
87 179 
87 185 
87 192 
88 89 
88 90 
88 91 
88 92 
88 93 
88 94 
88 95 
88 96 
88 97 
88 98 
88 99 
88 102 
88 116 
88 124 
88 130 
88 137 
88 144 
88 146 
88 158 
88 168 
88 172 
88 176 
88 186 
88 191 
89 90 
89 91 
89 92 
89 93 
89 94 
89 95 
89 96 
89 97 
89 98 
89 103 
89 109 
89 115 
89 117 
89 131 
89 134 
89 141 
89 145 
89 156 
89 159 
89 173 
89 181 
89 187 
89 194 
90 91 
90 92 
90 93 
90 94 
90 95 
90 96 
90 97 
90 98 
90 101 
90 104 
90 113 
90 118 
90 131 
90 132 
90 146 
90 154 
90 160 
90 163 
90 170 
90 174 
90 186 
90 188 
91 92 
91 93 
91 94 
91 95 
91 96 
91 97 
91 98 
91 105 
91 111 
91 118 
91 119 
91 129 
91 133 
91 142 
91 147 
91 158 
91 161 
91 169 
91 175 
91 189 
91 193 
92 93 
92 94 
92 95 
92 96 
92 97 
92 98 
92 106 
92 110 
92 120 
92 122 
92 134 
92 135 
92 143 
92 148 
92 161 
92 162 
92 174 
92 176 
92 190 
92 196 
93 94 
93 95 
93 96 
93 97 
93 98 
93 104 
93 107 
93 120 
93 121 
93 128 
93 135 
93 144 
93 149 
93 159 
93 163 
93 175 
93 177 
93 183 
93 191 
94 95 
94 96 
94 97 
94 98 
94 103 
94 108 
94 122 
94 126 
94 133 
94 136 
94 148 
94 150 
94 164 
94 165 
94 172 
94 178 
94 184 
94 192 
95 96 
95 97 
95 98 
95 108 
95 109 
95 121 
95 123 
95 132 
95 137 
95 147 
95 151 
95 165 
95 167 
95 173 
95 179 
95 185 
95 193 
96 97 
96 98 
96 107 
96 110 
96 119 
96 124 
96 130 
96 138 
96 145 
96 152 
96 160 
96 166 
96 180 
96 182 
96 194 
96 195 
97 98 
97 102 
97 111 
97 123 
97 125 
97 136 
97 139 
97 149 
97 153 
97 162 
97 167 
97 171 
97 181 
97 188 
97 195 
98 106 
98 112 
98 114 
98 126 
98 139 
98 140 
98 150 
98 154 
98 155 
98 168 
98 180 
98 182 
98 189 
98 196 
99 100 
99 101 
99 102 
99 103 
99 104 
99 105 
99 106 
99 107 
99 108 
99 109 
99 110 
99 111 
99 112 
99 113 
99 124 
99 127 
99 137 
99 141 
99 146 
99 155 
99 168 
99 169 
99 176 
99 183 
99 191 
100 101 
100 102 
100 103 
100 104 
100 105 
100 106 
100 107 
100 108 
100 109 
100 110 
100 111 
100 112 
100 114 
100 117 
100 128 
100 140 
100 142 
100 153 
100 156 
100 166 
100 170 
100 179 
100 184 
100 192 
101 102 
101 103 
101 104 
101 105 
101 106 
101 107 
101 108 
101 109 
101 110 
101 111 
101 112 
101 113 
101 115 
101 129 
101 131 
101 143 
101 154 
101 157 
101 163 
101 170 
101 171 
101 185 
101 186 
102 103 
102 104 
102 105 
102 106 
102 107 
102 108 
102 109 
102 110 
102 111 
102 112 
102 116 
102 123 
102 130 
102 136 
102 144 
102 149 
102 158 
102 162 
102 171 
102 172 
102 186 
102 188 
103 104 
103 105 
103 106 
103 107 
103 108 
103 109 
103 110 
103 111 
103 112 
103 117 
103 126 
103 131 
103 133 
103 145 
103 148 
103 159 
103 165 
103 172 
103 173 
103 184 
103 187 
104 105 
104 106 
104 107 
104 108 
104 109 
104 110 
104 111 
104 112 
104 118 
104 120 
104 128 
104 132 
104 144 
104 146 
104 159 
104 160 
104 174 
104 175 
104 183 
104 188 
105 106 
105 107 
105 108 
105 109 
105 110 
105 111 
105 112 
105 119 
105 125 
105 133 
105 138 
105 147 
105 151 
105 161 
105 164 
105 175 
105 177 
105 189 
105 190 
106 107 
106 108 
106 109 
106 110 
106 111 
106 112 
106 114 
106 120 
106 134 
106 139 
106 148 
106 150 
106 155 
106 162 
106 176 
106 180 
106 189 
106 190 
107 108 
107 109 
107 110 
107 111 
107 112 
107 119 
107 121 
107 130 
107 135 
107 145 
107 149 
107 160 
107 163 
107 177 
107 182 
107 191 
107 195 
108 109 
108 110 
108 111 
108 112 
108 121 
108 122 
108 132 
108 136 
108 147 
108 150 
108 164 
108 167 
108 173 
108 178 
108 185 
108 192 
109 110 
109 111 
109 112 
109 115 
109 123 
109 134 
109 137 
109 141 
109 151 
109 156 
109 165 
109 179 
109 181 
109 193 
109 194 
110 111 
110 112 
110 122 
110 124 
110 135 
110 138 
110 143 
110 152 
110 161 
110 166 
110 174 
110 180 
110 194 
110 196 
111 112 
111 118 
111 125 
111 129 
111 139 
111 142 
111 153 
111 158 
111 167 
111 169 
111 181 
111 193 
111 195 
112 116 
112 126 
112 127 
112 140 
112 152 
112 154 
112 157 
112 168 
112 178 
112 182 
112 187 
112 196 
113 114 
113 115 
113 116 
113 117 
113 118 
113 119 
113 120 
113 121 
113 122 
113 123 
113 124 
113 125 
113 126 
113 127 
113 131 
113 141 
113 154 
113 155 
113 163 
113 169 
113 170 
113 183 
113 186 
114 115 
114 116 
114 117 
114 118 
114 119 
114 120 
114 121 
114 122 
114 123 
114 124 
114 125 
114 126 
114 128 
114 139 
114 142 
114 150 
114 155 
114 156 
114 170 
114 180 
114 184 
114 189 
115 116 
115 117 
115 118 
115 119 
115 120 
115 121 
115 122 
115 123 
115 124 
115 125 
115 126 
115 129 
115 134 
115 141 
115 143 
115 156 
115 157 
115 171 
115 181 
115 185 
115 194 
116 117 
116 118 
116 119 
116 120 
116 121 
116 122 
116 123 
116 124 
116 125 
116 126 
116 127 
116 130 
116 144 
116 152 
116 157 
116 158 
116 172 
116 178 
116 186 
116 187 
117 118 
117 119 
117 120 
117 121 
117 122 
117 123 
117 124 
117 125 
117 126 
117 131 
117 140 
117 145 
117 153 
117 159 
117 166 
117 173 
117 179 
117 187 
117 192 
118 119 
118 120 
118 121 
118 122 
118 123 
118 124 
118 125 
118 126 
118 129 
118 132 
118 142 
118 146 
118 158 
118 160 
118 169 
118 174 
118 188 
118 193 
119 120 
119 121 
119 122 
119 123 
119 124 
119 125 
119 126 
119 130 
119 133 
119 145 
119 147 
119 160 
119 161 
119 175 
119 182 
119 189 
119 195 
120 121 
120 122 
120 123 
120 124 
120 125 
120 126 
120 128 
120 134 
120 144 
120 148 
120 159 
120 162 
120 175 
120 176 
120 183 
120 190 
121 122 
121 123 
121 124 
121 125 
121 126 
121 132 
121 135 
121 147 
121 149 
121 163 
121 167 
121 173 
121 177 
121 185 
121 191 
122 123 
122 124 
122 125 
122 126 
122 135 
122 136 
122 143 
122 150 
122 161 
122 164 
122 174 
122 178 
122 192 
122 196 
123 124 
123 125 
123 126 
123 136 
123 137 
123 149 
123 151 
123 162 
123 165 
123 171 
123 179 
123 188 
123 193 
124 125 
124 126 
124 137 
124 138 
124 146 
124 152 
124 166 
124 168 
124 176 
124 180 
124 191 
124 194 
125 126 
125 138 
125 139 
125 151 
125 153 
125 164 
125 167 
125 177 
125 181 
125 190 
125 195 
126 133 
126 140 
126 148 
126 154 
126 165 
126 168 
126 172 
126 182 
126 184 
126 196 
127 128 
127 129 
127 130 
127 131 
127 132 
127 133 
127 134 
127 135 
127 136 
127 137 
127 138 
127 139 
127 140 
127 141 
127 152 
127 155 
127 157 
127 169 
127 178 
127 183 
127 187 
128 129 
128 130 
128 131 
128 132 
128 133 
128 134 
128 135 
128 136 
128 137 
128 138 
128 139 
128 140 
128 142 
128 144 
128 156 
128 159 
128 170 
128 175 
128 183 
128 184 
129 130 
129 131 
129 132 
129 133 
129 134 
129 135 
129 136 
129 137 
129 138 
129 139 
129 140 
129 142 
129 143 
129 157 
129 158 
129 169 
129 171 
129 185 
129 193 
130 131 
130 132 
130 133 
130 134 
130 135 
130 136 
130 137 
130 138 
130 139 
130 140 
130 144 
130 145 
130 158 
130 160 
130 172 
130 182 
130 186 
130 195 
131 132 
131 133 
131 134 
131 135 
131 136 
131 137 
131 138 
131 139 
131 140 
131 145 
131 154 
131 159 
131 163 
131 170 
131 173 
131 186 
131 187 
132 133 
132 134 
132 135 
132 136 
132 137 
132 138 
132 139 
132 140 
132 146 
132 147 
132 160 
132 167 
132 173 
132 174 
132 185 
132 188 
133 134 
133 135 
133 136 
133 137 
133 138 
133 139 
133 140 
133 147 
133 148 
133 161 
133 165 
133 172 
133 175 
133 184 
133 189 
134 135 
134 136 
134 137 
134 138 
134 139 
134 140 
134 141 
134 148 
134 156 
134 162 
134 176 
134 181 
134 190 
134 194 
135 136 
135 137 
135 138 
135 139 
135 140 
135 143 
135 149 
135 161 
135 163 
135 174 
135 177 
135 191 
135 196 
136 137 
136 138 
136 139 
136 140 
136 149 
136 150 
136 162 
136 164 
136 171 
136 178 
136 188 
136 192 
137 138 
137 139 
137 140 
137 146 
137 151 
137 165 
137 168 
137 176 
137 179 
137 191 
137 193 
138 139 
138 140 
138 151 
138 152 
138 164 
138 166 
138 177 
138 180 
138 190 
138 194 
139 140 
139 150 
139 153 
139 155 
139 167 
139 180 
139 181 
139 189 
139 195 
140 153 
140 154 
140 166 
140 168 
140 179 
140 182 
140 192 
140 196 
141 142 
141 143 
141 144 
141 145 
141 146 
141 147 
141 148 
141 149 
141 150 
141 151 
141 152 
141 153 
141 154 
141 155 
141 156 
141 169 
141 181 
141 183 
141 194 
142 143 
142 144 
142 145 
142 146 
142 147 
142 148 
142 149 
142 150 
142 151 
142 152 
142 153 
142 154 
142 156 
142 158 
142 169 
142 170 
142 184 
142 193 
143 144 
143 145 
143 146 
143 147 
143 148 
143 149 
143 150 
143 151 
143 152 
143 153 
143 154 
143 157 
143 161 
143 171 
143 174 
143 185 
143 196 
144 145 
144 146 
144 147 
144 148 
144 149 
144 150 
144 151 
144 152 
144 153 
144 154 
144 158 
144 159 
144 172 
144 175 
144 183 
144 186 
145 146 
145 147 
145 148 
145 149 
145 150 
145 151 
145 152 
145 153 
145 154 
145 159 
145 160 
145 173 
145 182 
145 187 
145 195 
146 147 
146 148 
146 149 
146 150 
146 151 
146 152 
146 153 
146 154 
146 160 
146 168 
146 174 
146 176 
146 188 
146 191 
147 148 
147 149 
147 150 
147 151 
147 152 
147 153 
147 154 
147 161 
147 167 
147 173 
147 175 
147 185 
147 189 
148 149 
148 150 
148 151 
148 152 
148 153 
148 154 
148 162 
148 165 
148 172 
148 176 
148 184 
148 190 
149 150 
149 151 
149 152 
149 153 
149 154 
149 162 
149 163 
149 171 
149 177 
149 188 
149 191 
150 151 
150 152 
150 153 
150 154 
150 155 
150 164 
150 178 
150 180 
150 189 
150 192 
151 152 
151 153 
151 154 
151 164 
151 165 
151 177 
151 179 
151 190 
151 193 
152 153 
152 154 
152 157 
152 166 
152 178 
152 180 
152 187 
152 194 
153 154 
153 166 
153 167 
153 179 
153 181 
153 192 
153 195 
154 163 
154 168 
154 170 
154 182 
154 186 
154 196 
155 156 
155 157 
155 158 
155 159 
155 160 
155 161 
155 162 
155 163 
155 164 
155 165 
155 166 
155 167 
155 168 
155 169 
155 180 
155 183 
155 189 
156 157 
156 158 
156 159 
156 160 
156 161 
156 162 
156 163 
156 164 
156 165 
156 166 
156 167 
156 168 
156 170 
156 181 
156 184 
156 194 
157 158 
157 159 
157 160 
157 161 
157 162 
157 163 
157 164 
157 165 
157 166 
157 167 
157 168 
157 171 
157 178 
157 185 
157 187 
158 159 
158 160 
158 161 
158 162 
158 163 
158 164 
158 165 
158 166 
158 167 
158 168 
158 169 
158 172 
158 186 
158 193 
159 160 
159 161 
159 162 
159 163 
159 164 
159 165 
159 166 
159 167 
159 168 
159 173 
159 175 
159 183 
159 187 
160 161 
160 162 
160 163 
160 164 
160 165 
160 166 
160 167 
160 168 
160 174 
160 182 
160 188 
160 195 
161 162 
161 163 
161 164 
161 165 
161 166 
161 167 
161 168 
161 174 
161 175 
161 189 
161 196 
162 163 
162 164 
162 165 
162 166 
162 167 
162 168 
162 171 
162 176 
162 188 
162 190 
163 164 
163 165 
163 166 
163 167 
163 168 
163 170 
163 177 
163 186 
163 191 
164 165 
164 166 
164 167 
164 168 
164 177 
164 178 
164 190 
164 192 
165 166 
165 167 
165 168 
165 172 
165 179 
165 184 
165 193 
166 167 
166 168 
166 179 
166 180 
166 192 
166 194 
167 168 
167 173 
167 181 
167 185 
167 195 
168 176 
168 182 
168 191 
168 196 
169 170 
169 171 
169 172 
169 173 
169 174 
169 175 
169 176 
169 177 
169 178 
169 179 
169 180 
169 181 
169 182 
169 183 
169 193 
170 171 
170 172 
170 173 
170 174 
170 175 
170 176 
170 177 
170 178 
170 179 
170 180 
170 181 
170 182 
170 184 
170 186 
171 172 
171 173 
171 174 
171 175 
171 176 
171 177 
171 178 
171 179 
171 180 
171 181 
171 182 
171 185 
171 188 
172 173 
172 174 
172 175 
172 176 
172 177 
172 178 
172 179 
172 180 
172 181 
172 182 
172 184 
172 186 
173 174 
173 175 
173 176 
173 177 
173 178 
173 179 
173 180 
173 181 
173 182 
173 185 
173 187 
174 175 
174 176 
174 177 
174 178 
174 179 
174 180 
174 181 
174 182 
174 188 
174 196 
175 176 
175 177 
175 178 
175 179 
175 180 
175 181 
175 182 
175 183 
175 189 
176 177 
176 178 
176 179 
176 180 
176 181 
176 182 
176 190 
176 191 
177 178 
177 179 
177 180 
177 181 
177 182 
177 190 
177 191 
178 179 
178 180 
178 181 
178 182 
178 187 
178 192 
179 180 
179 181 
179 182 
179 192 
179 193 
180 181 
180 182 
180 189 
180 194 
181 182 
181 194 
181 195 
182 195 
182 196 
183 184 
183 185 
183 186 
183 187 
183 188 
183 189 
183 190 
183 191 
183 192 
183 193 
183 194 
183 195 
183 196 
184 185 
184 186 
184 187 
184 188 
184 189 
184 190 
184 191 
184 192 
184 193 
184 194 
184 195 
184 196 
185 186 
185 187 
185 188 
185 189 
185 190 
185 191 
185 192 
185 193 
185 194 
185 195 
185 196 
186 187 
186 188 
186 189 
186 190 
186 191 
186 192 
186 193 
186 194 
186 195 
186 196 
187 188 
187 189 
187 190 
187 191 
187 192 
187 193 
187 194 
187 195 
187 196 
188 189 
188 190 
188 191 
188 192 
188 193 
188 194 
188 195 
188 196 
189 190 
189 191 
189 192 
189 193 
189 194 
189 195 
189 196 
190 191 
190 192 
190 193 
190 194 
190 195 
190 196 
191 192 
191 193 
191 194 
191 195 
191 196 
192 193 
192 194 
192 195 
192 196 
193 194 
193 195 
193 196 
194 195 
194 196 
195 196 
